
Gurobi 6.0.5 (linux64) logging started Tue Nov 24 21:59:08 2015

Optimize a model with 18736 rows, 129601 columns and 184856 nonzeros
Coefficient statistics:
  Matrix range    [1e+00, 1e+01]
  Objective range [1e+00, 1e+00]
  Bounds range    [1e+00, 6e+02]
  RHS range       [1e+00, 2e+00]
Found heuristic solution: objective 119
Presolve removed 3600 rows and 72880 columns
Presolve time: 0.39s
Presolved: 15136 rows, 56721 columns, 183346 nonzeros
Variable types: 0 continuous, 56721 integer (56720 binary)

Root relaxation: objective 1.062500e+02, 10243 iterations, 0.25 seconds

    Nodes    |    Current Node    |     Objective Bounds      |     Work
 Expl Unexpl |  Obj  Depth IntInf | Incumbent    BestBd   Gap | It/Node Time

     0     0  106.25000    0    6  119.00000  106.25000  10.7%     -    0s
H    0     0                     107.0000000  106.25000  0.70%     -    0s

Explored 0 nodes (16185 simplex iterations) in 0.94 seconds
Thread count was 1 (of 1 available processors)

Optimal solution found (tolerance 1.00e-04)
Best objective 1.070000000000e+02, best bound 1.070000000000e+02, gap 0.0%

Gurobi 6.0.5 (linux64) logging started Tue Nov 24 22:02:01 2015

Optimize a model with 18736 rows, 129601 columns and 184856 nonzeros
Coefficient statistics:
  Matrix range    [1e+00, 1e+01]
  Objective range [1e+00, 1e+00]
  Bounds range    [1e+00, 6e+02]
  RHS range       [1e+00, 2e+00]
Found heuristic solution: objective 119
Presolve removed 3600 rows and 72880 columns
Presolve time: 0.35s
Presolved: 15136 rows, 56721 columns, 183346 nonzeros
Variable types: 0 continuous, 56721 integer (56720 binary)

Root relaxation: objective 1.062500e+02, 10243 iterations, 0.20 seconds

    Nodes    |    Current Node    |     Objective Bounds      |     Work
 Expl Unexpl |  Obj  Depth IntInf | Incumbent    BestBd   Gap | It/Node Time

     0     0  106.25000    0    6  119.00000  106.25000  10.7%     -    0s
H    0     0                     107.0000000  106.25000  0.70%     -    0s

Explored 0 nodes (16185 simplex iterations) in 0.85 seconds
Thread count was 1 (of 1 available processors)

Optimal solution found (tolerance 1.00e-04)
Best objective 1.070000000000e+02, best bound 1.070000000000e+02, gap 0.0%

Gurobi 6.0.5 (linux64) logging started Tue Nov 24 23:06:51 2015

Optimize a model with 18736 rows, 129601 columns and 184888 nonzeros
Coefficient statistics:
  Matrix range    [1e+00, 1e+01]
  Objective range [1e+00, 1e+00]
  Bounds range    [1e+00, 6e+02]
  RHS range       [1e+00, 2e+00]
Found heuristic solution: objective 125
Presolve removed 3600 rows and 72872 columns
Presolve time: 0.39s
Presolved: 15136 rows, 56729 columns, 183377 nonzeros
Variable types: 0 continuous, 56729 integer (56728 binary)

Root relaxation: objective 1.062500e+02, 11871 iterations, 0.53 seconds

    Nodes    |    Current Node    |     Objective Bounds      |     Work
 Expl Unexpl |  Obj  Depth IntInf | Incumbent    BestBd   Gap | It/Node Time

     0     0  106.25000    0    7  125.00000  106.25000  15.0%     -    1s
H    0     0                     107.0000000  106.25000  0.70%     -    1s

Explored 0 nodes (18400 simplex iterations) in 1.45 seconds
Thread count was 1 (of 1 available processors)

Optimal solution found (tolerance 1.00e-04)
Best objective 1.070000000000e+02, best bound 1.070000000000e+02, gap 0.0%

Gurobi 6.0.5 (linux64) logging started Tue Nov 24 23:13:55 2015

Optimize a model with 18736 rows, 129601 columns and 184888 nonzeros
Coefficient statistics:
  Matrix range    [1e+00, 1e+01]
  Objective range [1e+00, 1e+00]
  Bounds range    [1e+00, 6e+02]
  RHS range       [1e+00, 2e+00]
Found heuristic solution: objective 125
Presolve removed 3600 rows and 72872 columns
Presolve time: 0.41s
Presolved: 15136 rows, 56729 columns, 183377 nonzeros
Variable types: 0 continuous, 56729 integer (56728 binary)

Root relaxation: objective 1.062500e+02, 11871 iterations, 0.55 seconds

    Nodes    |    Current Node    |     Objective Bounds      |     Work
 Expl Unexpl |  Obj  Depth IntInf | Incumbent    BestBd   Gap | It/Node Time

     0     0  106.25000    0    7  125.00000  106.25000  15.0%     -    1s
H    0     0                     107.0000000  106.25000  0.70%     -    1s

Explored 0 nodes (18400 simplex iterations) in 1.50 seconds
Thread count was 1 (of 1 available processors)

Optimal solution found (tolerance 1.00e-04)
Best objective 1.070000000000e+02, best bound 1.070000000000e+02, gap 0.0%

Gurobi 6.0.5 (linux64) logging started Tue Nov 24 23:14:28 2015

Optimize a model with 18736 rows, 129601 columns and 184856 nonzeros
Coefficient statistics:
  Matrix range    [1e+00, 1e+01]
  Objective range [1e+00, 1e+00]
  Bounds range    [1e+00, 6e+02]
  RHS range       [1e+00, 2e+00]
Found heuristic solution: objective 119
Presolve removed 3600 rows and 72880 columns
Presolve time: 0.87s
Presolved: 15136 rows, 56721 columns, 183346 nonzeros
Variable types: 0 continuous, 56721 integer (56720 binary)

Root relaxation: objective 1.062500e+02, 10243 iterations, 0.66 seconds

    Nodes    |    Current Node    |     Objective Bounds      |     Work
 Expl Unexpl |  Obj  Depth IntInf | Incumbent    BestBd   Gap | It/Node Time

     0     0  106.25000    0    6  119.00000  106.25000  10.7%     -    2s
H    0     0                     107.0000000  106.25000  0.70%     -    2s

Explored 0 nodes (16185 simplex iterations) in 2.12 seconds
Thread count was 1 (of 1 available processors)

Optimal solution found (tolerance 1.00e-04)
Best objective 1.070000000000e+02, best bound 1.070000000000e+02, gap 0.0%

Gurobi 6.0.5 (linux64) logging started Tue Nov 24 23:37:22 2015

Optimize a model with 18736 rows, 129601 columns and 184888 nonzeros
Coefficient statistics:
  Matrix range    [1e+00, 1e+01]
  Objective range [1e+00, 1e+00]
  Bounds range    [1e+00, 6e+02]
  RHS range       [1e+00, 2e+00]
Found heuristic solution: objective 125
Presolve removed 3600 rows and 72872 columns
Presolve time: 0.31s
Presolved: 15136 rows, 56729 columns, 183377 nonzeros
Variable types: 0 continuous, 56729 integer (56728 binary)

Root relaxation: objective 1.062500e+02, 11871 iterations, 0.49 seconds

    Nodes    |    Current Node    |     Objective Bounds      |     Work
 Expl Unexpl |  Obj  Depth IntInf | Incumbent    BestBd   Gap | It/Node Time

     0     0  106.25000    0    7  125.00000  106.25000  15.0%     -    1s
H    0     0                     107.0000000  106.25000  0.70%     -    1s

Explored 0 nodes (18400 simplex iterations) in 1.19 seconds
Thread count was 1 (of 1 available processors)

Optimal solution found (tolerance 1.00e-04)
Best objective 1.070000000000e+02, best bound 1.070000000000e+02, gap 0.0%
